NAME: tsp30_27
COMMENT: 30-tsp problem (Padberg/Rinaldi)
TYPE: TSP
DIMENSION: 30
EDGE_WEIGHT_TYPE : EUC_2D
NODE_COORD_SECTION
1 2 16
2 38 14
3 21 14
4 30 33
5 30 22
6 11 27
7 10 2
8 4 10
9 28 36
10 24 8
11 36 1
12 23 28
13 23 17
14 32 21
15 10 4
16 3 11
17 24 11
18 12 4
19 1 17
20 7 33
21 29 22
22 33 6
23 32 34
24 33 15
25 1 12
26 16 29
27 20 19
28 3 1
29 24 24
30 27 28
